DIMACS2
20 299 208 248 26 193 209 147 116 221 46 10 71 176 59 55 39 131 57 94 256
p edge 320 2125
e 0 138 2.0
e 0 26 32.0
e 0 196 1.0
e 1 225 1.0
e 1 150 1.0
e 2 315 2.0
e 2 10 48.0
e 2 83 1.0
e 2 56 3.0
e 2 237 2.0
e 2 52 3.0
e 3 49 2.0
e 3 216 2.0
e 3 96 2.0
e 3 161 1.0
e 3 155 2.0
e 3 185 1.0
e 4 309 1.0
e 5 115 1.0
e 5 284 1.0
e 5 37 1.0
e 6 123 1.0
e 6 255 1.0
e 7 125 2.0
e 7 15 2.0
e 7 239 1.0
e 7 287 6.0
e 8 134 1.0
e 8 147 14.0
e 8 300 1.0
e 9 261 4.0
e 9 306 1.0
e 9 208 9.0
e 9 299 42.0
e 9 216 3.0
e 9 304 2.0
e 9 294 6.0
e 9 274 4.0
e 9 234 3.0
e 9 104 5.0
e 10 116 25.0
e 10 251 47.0
e 10 194 13.0
e 10 169 29.0
e 10 193 28.0
e 10 178 3.0
e 10 26 25.0
e 10 146 11.0
e 10 224 16.0
e 10 12 10.0
e 10 45 9.0
e 10 238 31.0
e 10 199 1.0
e 10 186 45.0
e 10 301 37.0
e 10 111 4.0
e 10 6 26.0
e 10 23 35.0
e 10 256 20.0
e 10 108 14.0
e 10 222 3.0
e 10 142 12.0
e 10 201 15.0
e 10 47 3.0
e 10 235 46.0
e 10 198 20.0
e 10 161 9.0
e 10 160 40.0
e 10 255 14.0
e 10 136 38.0
e 10 134 9.0
e 10 40 22.0
e 10 123 23.0
e 10 214 16.0
e 10 190 41.0
e 10 171 21.0
e 10 227 25.0
e 10 298 19.0
e 10 187 19.0
e 10 282 7.0
e 10 127 16.0
e 10 244 16.0
e 10 239 12.0
e 10 97 38.0
e 10 231 17.0
e 10 204 4.0
e 10 99 19.0
e 10 128 7.0
e 10 98 18.0
e 10 291 43.0
e 10 27 12.0
e 10 49 20.0
e 10 269 30.0
e 10 3 48.0
e 10 106 48.0
e 10 191 26.0
e 10 185 12.0
e 10 153 41.0
e 10 162 4.0
e 10 176 33.0
e 10 110 8.0
e 10 28 17.0
e 10 284 6.0
e 10 16 1.0
e 10 74 5.0
e 10 246 15.0
e 10 48 7.0
e 10 305 21.0
e 10 276 30.0
e 10 14 21.0
e 10 78 30.0
e 10 236 42.0
e 10 63 10.0
e 10 154 7.0
e 10 172 16.0
e 10 62 19.0
e 10 31 25.0
e 10 11 4.0
e 10 158 33.0
e 10 73 2.0
e 11 59 48.0
e 11 312 1.0
e 11 198 2.0
e 11 15 1.0
e 11 123 5.0
e 11 67 3.0
e 11 305 4.0
e 11 200 1.0
e 11 115 6.0
e 11 2 2.0
e 12 86 1.0
e 12 55 24.0
e 13 163 1.0
e 13 168 1.0
e 13 166 1.0
e 13 162 3.0
e 13 39 42.0
e 14 255 2.0
e 14 258 2.0
e 14 56 1.0
e 14 250 1.0
e 15 82 2.0
e 16 250 2.0
e 16 254 2.0
e 16 98 1.0
e 17 233 2.0
e 17 63 2.0
e 18 27 1.0
e 19 255 1.0
e 19 313 2.0
e 19 227 1.0
e 19 5 1.0
e 20 290 1.0
e 20 89 1.0
e 20 112 1.0
e 21 24 2.0
e 21 317 1.0
e 21 223 1.0
e 21 152 1.0
e 21 125 1.0
e 22 245 1.0
e 22 55 10.0
e 22 293 2.0
e 22 185 1.0
e 23 187 2.0
e 23 209 45.0
e 24 234 2.0
e 24 43 1.0
e 24 145 1.0
e 25 260 1.0
e 25 53 3.0
e 26 102 37.0
e 26 38 42.0
e 26 60 32.0
e 26 42 28.0
e 26 161 28.0
e 26 147 14.0
e 26 150 24.0
e 26 155 39.0
e 26 104 22.0
e 26 87 11.0
e 26 235 11.0
e 26 81 43.0
e 26 314 4.0
e 26 41 15.0
e 26 27 42.0
e 26 39 7.0
e 26 302 43.0
e 26 293 20.0
e 26 228 4.0
e 26 5 21.0
e 26 318 35.0
e 26 109 37.0
e 26 11 41.0
e 26 175 26.0
e 26 69 16.0
e 26 315 6.0
e 26 210 25.0
e 26 257 19.0
e 26 248 35.0
e 26 51 34.0
e 26 319 37.0
e 26 222 23.0
e 26 143 40.0
e 26 80 2.0
e 26 67 44.0
e 26 141 25.0
e 26 297 8.0
e 26 28 10.0
e 26 76 9.0
e 26 204 26.0
e 26 48 33.0
e 26 30 9.0
e 26 1 24.0
e 26 288 1.0
e 26 265 6.0
e 26 206 32.0
e 26 126 13.0
e 26 139 43.0
e 26 47 44.0
e 26 266 40.0
e 26 289 2.0
e 26 3 32.0
e 26 68 16.0
e 26 253 43.0
e 26 70 10.0
e 26 13 37.0
e 26 284 8.0
e 26 135 35.0
e 26 117 21.0
e 26 77 40.0
e 26 286 18.0
e 26 188 3.0
e 26 16 43.0
e 26 316 16.0
e 26 144 11.0
e 26 61 49.0
e 26 230 19.0
e 27 184 2.0
e 27 54 2.0
e 27 126 1.0
e 28 125 1.0
e 29 292 1.0
e 29 276 1.0
e 29 285 2.0
e 30 246 1.0
e 30 115 2.0
e 30 263 1.0
e 30 94 27.0
e 31 164 3.0
e 31 238 1.0
e 32 7 2.0
e 32 249 1.0
e 32 111 1.0
e 32 3 1.0
e 32 171 1.0
e 33 131 32.0
e 33 318 5.0
e 33 199 5.0
e 33 2 1.0
e 33 294 5.0
e 33 89 4.0
e 33 56 4.0
e 33 228 1.0
e 33 140 5.0
e 33 96 1.0
e 33 32 3.0
e 34 49 1.0
e 34 19 1.0
e 34 194 2.0
e 34 240 1.0
e 34 265 1.0
e 35 74 1.0
e 35 233 1.0
e 35 237 1.0
e 35 208 14.0
e 35 256 47.0
e 35 238 2.0
e 36 214 1.0
e 36 66 1.0
e 36 40 2.0
e 36 313 1.0
e 36 106 4.0
e 36 148 1.0
e 37 177 3.0
e 37 277 3.0
e 37 308 1.0
e 37 62 12.0
e 37 266 3.0
e 37 16 6.0
e 37 163 9.0
e 37 82 7.0
e 37 157 2.0
e 37 33 1.0
e 37 34 2.0
e 37 288 4.0
e 37 183 9.0
e 37 284 7.0
e 37 161 1.0
e 37 297 11.0
e 37 206 7.0
e 37 152 7.0
e 37 148 11.0
e 38 187 1.0
e 38 188 2.0
e 38 157 2.0
e 38 206 1.0
e 38 110 2.0
e 39 260 40.0
e 39 1 35.0
e 39 297 14.0
e 39 317 21.0
e 39 145 11.0
e 39 295 39.0
e 39 4 43.0
e 39 127 31.0
e 39 256 39.0
e 39 167 44.0
e 39 160 27.0
e 39 228 5.0
e 39 68 35.0
e 39 57 24.0
e 39 93 6.0
e 39 107 28.0
e 39 288 35.0
e 39 14 28.0
e 39 27 19.0
e 39 138 47.0
e 39 313 32.0
e 39 109 1.0
e 39 19 16.0
e 39 298 45.0
e 39 267 1.0
e 39 44 28.0
e 39 137 5.0
e 39 30 1.0
e 39 245 41.0
e 39 318 10.0
e 39 179 31.0
e 39 299 30.0
e 39 232 9.0
e 39 70 27.0
e 39 153 25.0
e 39 191 9.0
e 39 227 35.0
e 39 237 36.0
e 39 249 2.0
e 39 270 36.0
e 39 166 41.0
e 39 251 6.0
e 39 56 32.0
e 39 236 30.0
e 39 94 35.0
e 39 252 3.0
e 39 225 29.0
e 39 113 19.0
e 39 307 20.0
e 39 49 16.0
e 39 241 28.0
e 39 15 15.0
e 39 265 10.0
e 39 261 36.0
e 39 229 46.0
e 39 60 35.0
e 39 129 20.0
e 39 45 24.0
e 39 300 14.0
e 39 161 44.0
e 39 215 2.0
e 39 155 26.0
e 39 192 3.0
e 39 154 33.0
e 39 269 43.0
e 39 5 12.0
e 39 130 49.0
e 39 6 4.0
e 39 180 28.0
e 39 146 6.0
e 39 83 39.0
e 39 156 16.0
e 39 134 28.0
e 39 25 1.0
e 39 197 10.0
e 39 157 46.0
e 40 136 2.0
e 40 228 2.0
e 40 227 2.0
e 41 234 1.0
e 42 132 1.0
e 42 43 1.0
e 42 301 1.0
e 42 278 1.0
e 43 151 2.0
e 44 258 1.0
e 45 9 5.0
e 46 206 2.0
e 46 65 22.0
e 46 51 38.0
e 46 68 21.0
e 46 187 27.0
e 46 132 25.0
e 46 230 42.0
e 46 186 46.0
e 46 297 42.0
e 46 103 23.0
e 46 121 26.0
e 46 208 42.0
e 46 138 43.0
e 46 7 39.0
e 46 286 13.0
e 46 29 8.0
e 46 35 29.0
e 46 133 23.0
e 46 9 45.0
e 46 127 9.0
e 46 30 7.0
e 46 134 11.0
e 46 266 43.0
e 46 63 18.0
e 46 116 32.0
e 46 227 14.0
e 46 109 49.0
e 46 71 13.0
e 46 185 14.0
e 46 163 29.0
e 46 136 43.0
e 46 235 29.0
e 46 204 45.0
e 46 213 39.0
e 46 108 4.0
e 46 47 25.0
e 46 1 31.0
e 46 202 33.0
e 46 200 18.0
e 46 167 36.0
e 46 66 18.0
e 46 84 10.0
e 46 48 14.0
e 46 295 17.0
e 46 293 34.0
e 46 249 11.0
e 46 135 14.0
e 46 188 9.0
e 46 4 20.0
e 46 97 32.0
e 46 164 36.0
e 46 242 19.0
e 46 26 1.0
e 46 232 49.0
e 46 284 49.0
e 46 179 11.0
e 46 106 29.0
e 46 209 46.0
e 46 285 25.0
e 46 33 5.0
e 46 61 23.0
e 46 215 43.0
e 46 294 16.0
e 46 3 43.0
e 46 114 1.0
e 46 199 48.0
e 46 288 30.0
e 46 306 19.0
e 46 205 28.0
e 46 241 18.0
e 46 172 14.0
e 46 59 2.0
e 46 52 10.0
e 46 154 5.0
e 46 104 10.0
e 46 72 6.0
e 46 53 8.0
e 46 150 35.0
e 46 317 37.0
e 46 287 27.0
e 46 20 13.0
e 47 87 1.0
e 48 55 18.0
e 48 44 2.0
e 48 59 36.0
e 49 43 1.0
e 49 295 1.0
e 50 125 1.0
e 50 99 1.0
e 50 189 1.0
e 50 147 49.0
e 51 295 1.0
e 52 76 3.0
e 52 122 2.0
e 52 206 4.0
e 52 258 1.0
e 52 301 5.0
e 52 67 2.0
e 52 259 1.0
e 52 223 3.0
e 52 233 1.0
e 53 39 19.0
e 53 153 5.0
e 53 267 2.0
e 53 167 1.0
e 53 257 6.0
e 53 90 1.0
e 53 163 5.0
e 53 64 2.0
e 53 264 4.0
e 54 174 1.0
e 54 75 1.0
e 55 283 5.0
e 55 208 16.0
e 55 128 48.0
e 55 81 31.0
e 55 102 26.0
e 55 71 37.0
e 55 209 3.0
e 55 98 31.0
e 55 217 26.0
e 55 13 47.0
e 55 115 3.0
e 55 265 5.0
e 55 275 37.0
e 55 157 37.0
e 55 14 13.0
e 55 214 36.0
e 55 3 14.0
e 55 266 41.0
e 55 43 35.0
e 55 204 38.0
e 55 24 49.0
e 55 59 42.0
e 55 17 19.0
e 55 129 4.0
e 55 195 31.0
e 55 130 6.0
e 55 10 3.0
e 55 37 28.0
e 55 168 3.0
e 55 65 38.0
e 55 160 47.0
e 55 76 49.0
e 55 49 44.0
e 55 287 11.0
e 55 23 46.0
e 55 318 28.0
e 55 116 45.0
e 55 233 44.0
e 55 63 49.0
e 55 172 32.0
e 55 238 9.0
e 55 319 39.0
e 55 316 45.0
e 55 41 28.0
e 55 106 9.0
e 55 292 21.0
e 55 194 23.0
e 55 134 26.0
e 55 255 29.0
e 55 148 30.0
e 55 147 31.0
e 55 118 36.0
e 55 101 44.0
e 55 273 18.0
e 55 183 12.0
e 55 162 4.0
e 55 274 26.0
e 55 15 26.0
e 55 178 41.0
e 55 127 38.0
e 55 121 14.0
e 55 16 45.0
e 55 50 37.0
e 55 270 3.0
e 55 199 18.0
e 55 25 8.0
e 55 51 28.0
e 55 9 34.0
e 55 242 26.0
e 55 57 6.0
e 55 11 45.0
e 55 280 39.0
e 55 306 37.0
e 55 64 39.0
e 55 103 18.0
e 55 20 20.0
e 55 317 13.0
e 56 303 2.0
e 56 7 3.0
e 56 271 4.0
e 56 285 1.0
e 56 190 4.0
e 57 60 32.0
e 57 197 36.0
e 57 24 26.0
e 57 149 1.0
e 57 160 26.0
e 57 304 21.0
e 57 21 2.0
e 57 208 28.0
e 57 122 34.0
e 57 144 43.0
e 57 56 34.0
e 57 29 10.0
e 57 194 28.0
e 57 16 41.0
e 57 47 42.0
e 57 0 3.0
e 57 283 31.0
e 57 85 27.0
e 57 219 18.0
e 57 284 8.0
e 57 58 34.0
e 57 297 7.0
e 57 237 9.0
e 57 191 22.0
e 57 68 42.0
e 57 260 44.0
e 57 146 31.0
e 57 243 17.0
e 57 42 4.0
e 57 244 32.0
e 57 121 12.0
e 57 96 33.0
e 57 124 19.0
e 57 220 22.0
e 57 23 36.0
e 57 102 31.0
e 57 31 15.0
e 57 32 48.0
e 57 215 38.0
e 57 108 35.0
e 57 145 2.0
e 57 7 13.0
e 57 185 19.0
e 57 49 19.0
e 57 44 18.0
e 57 287 39.0
e 57 238 12.0
e 57 278 32.0
e 57 167 38.0
e 57 248 19.0
e 57 221 7.0
e 57 245 34.0
e 57 72 31.0
e 57 281 34.0
e 57 40 10.0
e 57 229 18.0
e 57 1 11.0
e 57 190 46.0
e 57 73 25.0
e 57 222 17.0
e 57 34 5.0
e 57 141 5.0
e 57 126 18.0
e 57 35 38.0
e 57 214 36.0
e 57 155 35.0
e 57 43 46.0
e 57 33 41.0
e 57 216 37.0
e 57 25 41.0
e 57 30 35.0
e 57 305 27.0
e 57 86 39.0
e 57 134 47.0
e 57 38 25.0
e 57 118 23.0
e 57 41 3.0
e 57 132 22.0
e 57 59 42.0
e 58 97 1.0
e 59 268 24.0
e 59 314 10.0
e 59 254 49.0
e 59 291 40.0
e 59 198 23.0
e 59 85 46.0
e 59 302 38.0
e 59 66 10.0
e 59 193 33.0
e 59 294 40.0
e 59 106 23.0
e 59 80 47.0
e 59 212 11.0
e 59 189 21.0
e 59 69 44.0
e 59 34 44.0
e 59 152 3.0
e 59 280 6.0
e 59 303 45.0
e 59 315 3.0
e 59 105 35.0
e 59 289 19.0
e 59 264 21.0
e 59 111 30.0
e 59 86 2.0
e 59 200 29.0
e 59 131 9.0
e 59 156 45.0
e 59 52 4.0
e 59 92 19.0
e 59 181 12.0
e 59 219 9.0
e 59 204 39.0
e 59 195 10.0
e 59 262 43.0
e 59 19 37.0
e 59 222 9.0
e 59 76 28.0
e 59 103 46.0
e 59 44 12.0
e 59 283 18.0
e 59 210 14.0
e 59 278 33.0
e 59 54 42.0
e 59 60 30.0
e 59 255 9.0
e 59 63 17.0
e 59 239 10.0
e 59 47 22.0
e 59 160 7.0
e 59 83 47.0
e 59 115 7.0
e 59 146 24.0
e 59 154 15.0
e 59 10 41.0
e 59 99 13.0
e 59 174 25.0
e 59 61 36.0
e 59 271 22.0
e 59 107 11.0
e 59 65 9.0
e 59 242 1.0
e 59 199 37.0
e 59 117 29.0
e 59 292 21.0
e 59 284 22.0
e 59 296 9.0
e 59 301 8.0
e 59 202 31.0
e 59 123 30.0
e 59 293 43.0
e 59 35 33.0
e 59 165 46.0
e 59 177 1.0
e 60 153 1.0
e 60 167 1.0
e 61 142 1.0
e 62 28 1.0
e 62 57 46.0
e 62 102 2.0
e 62 291 1.0
e 63 39 34.0
e 64 71 47.0
e 64 148 1.0
e 64 91 1.0
e 64 12 2.0
e 65 223 2.0
e 66 140 1.0
e 67 237 1.0
e 68 222 1.0
e 69 15 1.0
e 70 242 1.0
e 71 37 22.0
e 71 148 36.0
e 71 89 4.0
e 71 235 43.0
e 71 219 45.0
e 71 130 4.0
e 71 178 21.0
e 71 109 17.0
e 71 213 38.0
e 71 108 10.0
e 71 57 7.0
e 71 237 41.0
e 71 217 43.0
e 71 161 35.0
e 71 45 48.0
e 71 313 5.0
e 71 66 42.0
e 71 134 17.0
e 71 276 33.0
e 71 258 24.0
e 71 106 17.0
e 71 80 15.0
e 71 274 32.0
e 71 86 19.0
e 71 119 12.0
e 71 100 8.0
e 71 47 1.0
e 71 194 28.0
e 71 155 29.0
e 71 281 12.0
e 71 123 46.0
e 71 48 18.0
e 71 174 36.0
e 71 49 21.0
e 71 211 43.0
e 71 156 27.0
e 71 3 48.0
e 71 257 16.0
e 71 312 19.0
e 71 7 16.0
e 71 298 37.0
e 71 177 2.0
e 71 107 22.0
e 71 173 26.0
e 71 157 8.0
e 71 291 40.0
e 71 278 14.0
e 71 229 24.0
e 71 218 39.0
e 71 315 19.0
e 71 167 21.0
e 71 152 45.0
e 71 201 8.0
e 71 8 18.0
e 71 110 34.0
e 71 238 9.0
e 71 199 36.0
e 71 303 10.0
e 71 137 1.0
e 71 149 37.0
e 71 96 43.0
e 71 262 20.0
e 71 181 20.0
e 71 292 46.0
e 71 316 46.0
e 71 38 6.0
e 71 111 45.0
e 71 301 7.0
e 71 147 43.0
e 71 76 39.0
e 71 21 43.0
e 71 28 6.0
e 71 39 33.0
e 71 88 24.0
e 71 314 41.0
e 71 51 36.0
e 71 184 27.0
e 71 62 47.0
e 72 28 1.0
e 73 21 1.0
e 74 51 1.0
e 75 152 1.0
e 75 179 1.0
e 76 244 2.0
e 77 245 1.0
e 77 281 2.0
e 77 157 1.0
e 78 91 3.0
e 78 111 2.0
e 78 261 1.0
e 79 155 1.0
e 79 210 1.0
e 79 211 2.0
e 80 87 1.0
e 80 230 1.0
e 80 123 1.0
e 81 253 1.0
e 82 185 1.0
e 82 54 1.0
e 82 124 1.0
e 82 164 2.0
e 83 253 1.0
e 84 32 1.0
e 84 71 36.0
e 84 269 1.0
e 85 137 1.0
e 86 148 1.0
e 87 126 2.0
e 87 89 2.0
e 87 158 1.0
e 88 131 32.0
e 88 171 1.0
e 88 175 1.0
e 88 217 1.0
e 88 273 1.0
e 89 240 1.0
e 90 156 1.0
e 91 254 1.0
e 92 296 1.0
e 92 17 1.0
e 93 281 1.0
e 93 308 1.0
e 94 43 9.0
e 94 19 8.0
e 94 31 34.0
e 94 95 18.0
e 94 71 15.0
e 94 85 25.0
e 94 37 43.0
e 94 7 43.0
e 94 176 24.0
e 94 275 43.0
e 94 259 8.0
e 94 130 18.0
e 94 277 7.0
e 94 170 8.0
e 94 265 14.0
e 94 45 12.0
e 94 36 45.0
e 94 300 36.0
e 94 57 38.0
e 94 53 23.0
e 94 241 40.0
e 94 60 45.0
e 94 239 46.0
e 94 318 44.0
e 94 251 8.0
e 94 32 1.0
e 94 292 37.0
e 94 38 22.0
e 94 22 37.0
e 94 256 15.0
e 94 248 19.0
e 94 284 8.0
e 94 308 33.0
e 94 58 40.0
e 94 54 42.0
e 94 21 18.0
e 94 79 23.0
e 94 86 5.0
e 94 104 5.0
e 94 23 38.0
e 94 311 49.0
e 94 81 13.0
e 94 72 27.0
e 94 126 19.0
e 94 252 5.0
e 94 224 10.0
e 94 131 32.0
e 94 75 37.0
e 94 33 11.0
e 94 25 28.0
e 94 26 47.0
e 94 307 27.0
e 94 74 16.0
e 94 5 46.0
e 94 217 47.0
e 94 267 32.0
e 94 250 36.0
e 94 160 48.0
e 94 77 26.0
e 94 266 30.0
e 94 24 9.0
e 94 56 29.0
e 94 207 5.0
e 94 310 14.0
e 94 247 30.0
e 94 10 9.0
e 94 18 35.0
e 94 161 37.0
e 94 268 46.0
e 94 89 7.0
e 94 108 19.0
e 94 27 19.0
e 94 132 40.0
e 94 4 18.0
e 94 73 25.0
e 94 100 8.0
e 94 80 35.0
e 94 59 42.0
e 94 46 34.0
e 95 315 2.0
e 95 118 1.0
e 95 208 32.0
e 96 114 1.0
e 97 16 1.0
e 98 40 1.0
e 98 272 1.0
e 99 273 1.0
e 100 131 11.0
e 100 36 1.0
e 100 187 1.0
e 100 89 2.0
e 101 256 34.0
e 101 306 1.0
e 101 129 2.0
e 101 255 1.0
e 101 203 1.0
e 102 261 1.0
e 102 279 2.0
e 103 113 1.0
e 104 283 1.0
e 105 315 1.0
e 105 163 1.0
e 106 18 4.0
e 106 210 6.0
e 106 226 1.0
e 106 279 1.0
e 107 72 1.0
e 108 39 21.0
e 109 253 1.0
e 110 211 1.0
e 111 280 1.0
e 112 103 2.0
e 112 8 1.0
e 113 22 1.0
e 113 266 1.0
e 113 185 1.0
e 113 264 2.0
e 114 173 1.0
e 114 249 1.0
e 114 216 2.0
e 114 202 1.0
e 115 174 1.0
e 116 260 28.0
e 116 291 41.0
e 116 177 31.0
e 116 90 19.0
e 116 89 36.0
e 116 56 40.0
e 116 4 45.0
e 116 210 21.0
e 116 263 13.0
e 116 304 14.0
e 116 264 2.0
e 116 183 30.0
e 116 153 41.0
e 116 305 28.0
e 116 278 41.0
e 116 164 14.0
e 116 188 1.0
e 116 126 18.0
e 116 249 3.0
e 116 63 20.0
e 116 106 25.0
e 116 18 26.0
e 116 91 34.0
e 116 284 4.0
e 116 102 12.0
e 116 5 10.0
e 116 25 6.0
e 116 118 46.0
e 116 144 14.0
e 116 266 47.0
e 116 166 20.0
e 116 127 35.0
e 116 67 13.0
e 116 97 35.0
e 116 272 33.0
e 116 184 36.0
e 116 108 35.0
e 116 218 4.0
e 116 228 25.0
e 116 78 18.0
e 116 104 24.0
e 116 187 37.0
e 116 0 30.0
e 116 261 44.0
e 116 226 36.0
e 116 16 5.0
e 116 283 15.0
e 116 265 38.0
e 116 231 12.0
e 116 130 1.0
e 116 136 29.0
e 116 299 23.0
e 116 308 48.0
e 116 44 22.0
e 116 250 1.0
e 116 185 19.0
e 116 99 8.0
e 116 41 44.0
e 116 227 41.0
e 116 220 2.0
e 116 74 16.0
e 116 214 41.0
e 116 76 8.0
e 116 247 29.0
e 116 26 35.0
e 116 198 37.0
e 116 313 17.0
e 116 75 8.0
e 116 98 25.0
e 116 290 17.0
e 116 39 7.0
e 116 101 4.0
e 116 35 27.0
e 116 205 6.0
e 116 256 44.0
e 116 307 31.0
e 116 81 13.0
e 116 279 26.0
e 117 14 1.0
e 117 313 2.0
e 117 33 5.0
e 117 71 36.0
e 118 165 1.0
e 119 204 1.0
e 119 250 1.0
e 120 89 1.0
e 120 162 1.0
e 121 308 1.0
e 121 10 27.0
e 121 203 1.0
e 122 277 1.0
e 123 210 3.0
e 124 278 1.0
e 125 6 2.0
e 125 79 1.0
e 126 160 1.0
e 127 171 1.0
e 128 233 1.0
e 129 4 1.0
e 130 65 1.0
e 131 175 16.0
e 131 22 14.0
e 131 259 13.0
e 131 140 30.0
e 131 92 43.0
e 131 159 1.0
e 131 302 43.0
e 131 214 42.0
e 131 169 25.0
e 131 145 41.0
e 131 303 27.0
e 131 80 22.0
e 131 124 44.0
e 131 245 19.0
e 131 132 13.0
e 131 95 36.0
e 131 268 49.0
e 131 263 46.0
e 131 231 38.0
e 131 166 36.0
e 131 125 4.0
e 131 72 11.0
e 131 96 47.0
e 131 307 9.0
e 131 200 17.0
e 131 280 40.0
e 131 181 38.0
e 131 182 8.0
e 131 285 41.0
e 131 71 27.0
e 131 180 7.0
e 131 232 6.0
e 131 186 38.0
e 131 60 4.0
e 131 300 24.0
e 131 34 9.0
e 131 70 16.0
e 131 160 18.0
e 131 123 15.0
e 131 295 12.0
e 131 8 48.0
e 131 67 25.0
e 131 318 3.0
e 131 153 9.0
e 131 313 36.0
e 131 49 14.0
e 131 315 8.0
e 131 199 14.0
e 131 237 12.0
e 131 161 44.0
e 131 210 18.0
e 131 217 5.0
e 131 222 31.0
e 131 171 1.0
e 131 56 3.0
e 131 162 33.0
e 131 135 7.0
e 131 126 46.0
e 131 142 4.0
e 131 114 10.0
e 131 158 17.0
e 131 23 33.0
e 131 55 48.0
e 131 69 16.0
e 131 253 18.0
e 131 37 3.0
e 131 61 47.0
e 131 77 49.0
e 131 157 33.0
e 131 299 31.0
e 131 228 15.0
e 131 113 14.0
e 131 172 13.0
e 131 176 33.0
e 131 211 47.0
e 131 27 48.0
e 132 216 1.0
e 133 58 2.0
e 133 194 2.0
e 133 208 23.0
e 133 155 2.0
e 134 169 1.0
e 135 77 1.0
e 136 281 1.0
e 137 91 1.0
e 138 188 1.0
e 138 256 38.0
e 138 128 2.0
e 139 314 1.0
e 139 217 1.0
e 139 105 1.0
e 139 27 1.0
e 139 102 1.0
e 140 275 1.0
e 141 168 1.0
e 142 59 48.0
e 142 236 4.0
e 142 304 8.0
e 142 294 1.0
e 142 12 2.0
e 142 62 11.0
e 142 82 11.0
e 142 112 3.0
e 142 132 2.0
e 142 260 4.0
e 142 297 2.0
e 142 205 5.0
e 142 298 5.0
e 142 240 6.0
e 142 97 7.0
e 142 89 5.0
e 142 207 12.0
e 142 17 10.0
e 143 77 2.0
e 144 181 1.0
e 145 144 1.0
e 146 242 1.0
e 147 208 38.0
e 147 310 41.0
e 147 309 37.0
e 147 295 11.0
e 147 148 33.0
e 147 73 21.0
e 147 244 40.0
e 147 127 46.0
e 147 238 17.0
e 147 15 48.0
e 147 281 15.0
e 147 174 24.0
e 147 302 34.0
e 147 206 13.0
e 147 82 25.0
e 147 16 20.0
e 147 180 42.0
e 147 86 44.0
e 147 4 18.0
e 147 97 13.0
e 147 288 30.0
e 147 113 27.0
e 147 23 18.0
e 147 41 23.0
e 147 181 42.0
e 147 149 25.0
e 147 242 22.0
e 147 241 31.0
e 147 70 44.0
e 147 87 35.0
e 147 116 24.0
e 147 145 10.0
e 147 272 19.0
e 147 258 11.0
e 147 44 2.0
e 147 20 7.0
e 147 131 12.0
e 147 190 31.0
e 147 108 32.0
e 147 119 28.0
e 147 315 26.0
e 147 151 8.0
e 147 311 11.0
e 147 282 12.0
e 147 109 8.0
e 147 259 46.0
e 147 158 41.0
e 147 53 44.0
e 147 48 19.0
e 147 112 2.0
e 147 316 45.0
e 147 303 28.0
e 147 209 43.0
e 147 107 1.0
e 147 185 4.0
e 147 296 20.0
e 147 273 15.0
e 147 239 8.0
e 147 294 44.0
e 147 93 49.0
e 147 105 34.0
e 147 5 13.0
e 147 212 32.0
e 147 141 4.0
e 147 17 1.0
e 147 170 12.0
e 147 117 6.0
e 147 118 35.0
e 147 312 19.0
e 147 33 38.0
e 147 45 42.0
e 147 262 36.0
e 147 110 42.0
e 147 195 6.0
e 147 51 9.0
e 147 290 20.0
e 148 135 1.0
e 149 285 2.0
e 149 253 2.0
e 150 51 1.0
e 151 268 2.0
e 152 50 2.0
e 153 205 2.0
e 154 260 1.0
e 155 191 1.0
e 156 186 1.0
e 156 54 3.0
e 157 63 1.0
e 158 176 19.0
e 158 318 1.0
e 159 268 3.0
e 160 13 1.0
e 161 44 1.0
e 162 165 1.0
e 163 233 2.0
e 164 201 2.0
e 164 254 1.0
e 165 206 1.0
e 166 170 1.0
e 167 250 2.0
e 168 305 1.0
e 168 300 2.0
e 169 219 1.0
e 169 224 3.0
e 170 24 1.0
e 171 22 1.0
e 172 276 1.0
e 172 202 1.0
e 173 208 13.0
e 173 88 2.0
e 173 23 1.0
e 173 138 1.0
e 174 108 2.0
e 175 63 2.0
e 176 106 41.0
e 176 270 16.0
e 176 208 14.0
e 176 181 18.0
e 176 169 10.0
e 176 133 23.0
e 176 124 1.0
e 176 104 28.0
e 176 155 47.0
e 176 296 2.0
e 176 157 44.0
e 176 53 16.0
e 176 182 20.0
e 176 307 11.0
e 176 61 24.0
e 176 318 13.0
e 176 200 17.0
e 176 3 21.0
e 176 190 39.0
e 176 305 38.0
e 176 272 29.0
e 176 170 27.0
e 176 221 29.0
e 176 159 20.0
e 176 39 2.0
e 176 48 6.0
e 176 201 35.0
e 176 183 42.0
e 176 128 18.0
e 176 138 19.0
e 176 220 23.0
e 176 116 46.0
e 176 227 7.0
e 176 290 15.0
e 176 304 2.0
e 176 263 40.0
e 176 130 41.0
e 176 178 21.0
e 176 162 25.0
e 176 242 35.0
e 176 257 42.0
e 176 30 13.0
e 176 251 26.0
e 176 65 22.0
e 176 232 21.0
e 176 132 44.0
e 176 269 6.0
e 176 211 16.0
e 176 223 23.0
e 176 80 5.0
e 176 22 20.0
e 176 45 32.0
e 176 315 28.0
e 176 194 45.0
e 176 49 46.0
e 176 184 15.0
e 176 266 1.0
e 176 146 6.0
e 176 149 35.0
e 176 218 29.0
e 176 256 11.0
e 176 57 18.0
e 176 129 11.0
e 176 249 30.0
e 176 210 19.0
e 176 115 14.0
e 176 160 27.0
e 176 222 4.0
e 176 161 41.0
e 176 125 24.0
e 176 289 46.0
e 176 213 1.0
e 176 34 25.0
e 176 274 17.0
e 176 145 25.0
e 176 163 43.0
e 177 61 1.0
e 178 214 1.0
e 179 41 1.0
e 179 56 1.0
e 179 7 1.0
e 180 152 1.0
e 181 98 1.0
e 182 104 2.0
e 183 85 1.0
e 184 221 8.0
e 184 155 2.0
e 185 120 1.0
e 186 171 1.0
e 187 42 1.0
e 188 90 1.0
e 189 241 2.0
e 190 169 2.0
e 191 89 2.0
e 192 133 1.0
e 192 92 1.0
e 193 229 23.0
e 193 300 6.0
e 193 284 39.0
e 193 251 39.0
e 193 37 41.0
e 193 258 22.0
e 193 100 21.0
e 193 74 17.0
e 193 126 24.0
e 193 120 26.0
e 193 101 36.0
e 193 262 15.0
e 193 12 4.0
e 193 290 23.0
e 193 294 13.0
e 193 301 18.0
e 193 287 47.0
e 193 160 5.0
e 193 181 7.0
e 193 15 35.0
e 193 182 34.0
e 193 49 2.0
e 193 57 1.0
e 193 212 19.0
e 193 176 13.0
e 193 112 18.0
e 193 96 11.0
e 193 174 29.0
e 193 259 36.0
e 193 185 33.0
e 193 288 4.0
e 193 11 34.0
e 193 232 12.0
e 193 266 34.0
e 193 283 19.0
e 193 13 15.0
e 193 200 34.0
e 193 230 43.0
e 193 291 48.0
e 193 304 29.0
e 193 65 7.0
e 193 16 38.0
e 193 254 42.0
e 193 216 43.0
e 193 166 40.0
e 193 25 22.0
e 193 307 47.0
e 193 278 38.0
e 193 312 29.0
e 193 89 36.0
e 193 281 41.0
e 193 149 25.0
e 193 219 42.0
e 193 186 44.0
e 193 252 18.0
e 193 260 20.0
e 193 123 34.0
e 193 302 12.0
e 193 134 20.0
e 193 131 43.0
e 193 38 14.0
e 193 187 17.0
e 193 178 14.0
e 193 64 19.0
e 193 75 7.0
e 193 250 19.0
e 193 299 13.0
e 193 32 14.0
e 193 213 41.0
e 193 40 43.0
e 193 261 14.0
e 193 217 38.0
e 193 1 29.0
e 193 227 23.0
e 193 190 36.0
e 193 97 17.0
e 193 58 14.0
e 193 26 19.0
e 193 104 39.0
e 194 96 1.0
e 195 128 1.0
e 196 272 1.0
e 197 292 2.0
e 197 316 2.0
e 197 120 1.0
e 198 50 2.0
e 199 19 1.0
e 200 166 1.0
e 201 129 1.0
e 202 295 2.0
e 202 106 1.0
e 203 95 1.0
e 204 310 1.0
e 205 186 1.0
e 206 199 1.0
e 207 233 1.0
e 207 210 1.0
e 207 288 1.0
e 207 213 2.0
e 208 308 28.0
e 208 262 42.0
e 208 65 26.0
e 208 189 36.0
e 208 301 25.0
e 208 203 1.0
e 208 242 29.0
e 208 228 44.0
e 208 278 34.0
e 208 47 28.0
e 208 66 21.0
e 208 71 26.0
e 208 158 19.0
e 208 294 48.0
e 208 309 15.0
e 208 166 17.0
e 208 131 49.0
e 208 267 20.0
e 208 29 1.0
e 208 177 14.0
e 208 255 49.0
e 208 223 44.0
e 208 299 45.0
e 208 295 28.0
e 208 256 48.0
e 208 264 7.0
e 208 60 35.0
e 208 230 22.0
e 208 134 23.0
e 208 276 31.0
e 208 275 1.0
e 208 307 18.0
e 208 44 29.0
e 208 316 13.0
e 208 209 43.0
e 208 165 40.0
e 208 80 23.0
e 208 167 12.0
e 208 92 41.0
e 208 277 38.0
e 208 178 11.0
e 208 195 17.0
e 208 196 4.0
e 208 30 22.0
e 208 183 24.0
e 208 146 20.0
e 208 61 47.0
e 208 187 3.0
e 208 298 2.0
e 208 287 47.0
e 208 161 2.0
e 208 88 42.0
e 208 28 39.0
e 208 127 22.0
e 208 19 49.0
e 208 121 22.0
e 208 257 34.0
e 208 160 10.0
e 208 251 12.0
e 208 96 45.0
e 208 236 47.0
e 208 292 7.0
e 208 149 25.0
e 208 2 42.0
e 208 143 4.0
e 208 274 20.0
e 208 159 31.0
e 208 293 18.0
e 208 23 19.0
e 208 5 22.0
e 208 229 45.0
e 209 304 1.0
e 209 138 20.0
e 209 170 24.0
e 209 160 15.0
e 209 219 26.0
e 209 154 20.0
e 209 185 14.0
e 209 150 44.0
e 209 151 46.0
e 209 301 48.0
e 209 238 17.0
e 209 142 38.0
e 209 274 8.0
e 209 283 49.0
e 209 120 32.0
e 209 224 36.0
e 209 194 8.0
e 209 119 12.0
e 209 129 29.0
e 209 94 16.0
e 209 210 47.0
e 209 54 18.0
e 209 84 41.0
e 209 228 39.0
e 209 270 8.0
e 209 38 18.0
e 209 135 9.0
e 209 12 19.0
e 209 113 31.0
e 209 62 9.0
e 209 240 28.0
e 209 77 23.0
e 209 207 25.0
e 209 296 3.0
e 209 137 11.0
e 209 33 10.0
e 209 105 22.0
e 209 39 48.0
e 209 310 23.0
e 209 293 17.0
e 209 211 33.0
e 209 225 39.0
e 209 53 8.0
e 209 91 11.0
e 209 284 31.0
e 209 201 44.0
e 209 186 4.0
e 209 64 15.0
e 209 83 31.0
e 209 214 31.0
e 209 20 12.0
e 209 165 24.0
e 209 103 29.0
e 209 68 17.0
e 209 25 13.0
e 209 59 1.0
e 209 187 35.0
e 209 285 38.0
e 209 65 37.0
e 209 63 38.0
e 209 15 33.0
e 209 114 26.0
e 209 155 2.0
e 209 247 11.0
e 209 78 20.0
e 209 303 13.0
e 209 221 48.0
e 209 66 44.0
e 209 300 6.0
e 209 282 4.0
e 209 298 41.0
e 209 133 34.0
e 209 67 13.0
e 209 106 10.0
e 209 171 47.0
e 209 69 19.0
e 210 260 1.0
e 211 78 1.0
e 212 176 39.0
e 212 62 2.0
e 212 289 2.0
e 213 300 2.0
e 214 253 1.0
e 215 25 1.0
e 216 175 2.0
e 217 253 1.0
e 218 30 1.0
e 219 221 2.0
e 220 313 1.0
e 220 264 1.0
e 220 162 2.0
e 221 55 8.0
e 221 208 32.0
e 221 278 48.0
e 221 274 15.0
e 221 32 6.0
e 221 0 45.0
e 221 49 19.0
e 221 198 40.0
e 221 242 7.0
e 221 185 45.0
e 221 48 26.0
e 221 173 5.0
e 221 56 25.0
e 221 38 26.0
e 221 269 21.0
e 221 188 36.0
e 221 132 5.0
e 221 27 11.0
e 221 225 47.0
e 221 317 27.0
e 221 153 25.0
e 221 177 20.0
e 221 19 25.0
e 221 109 15.0
e 221 189 27.0
e 221 124 11.0
e 221 133 16.0
e 221 165 38.0
e 221 116 20.0
e 221 314 24.0
e 221 158 48.0
e 221 255 4.0
e 221 5 13.0
e 221 151 38.0
e 221 174 21.0
e 221 61 48.0
e 221 11 20.0
e 221 125 10.0
e 221 126 45.0
e 221 127 9.0
e 221 118 41.0
e 221 318 33.0
e 221 87 7.0
e 221 120 37.0
e 221 145 29.0
e 221 253 9.0
e 221 92 45.0
e 221 175 7.0
e 221 319 33.0
e 221 142 45.0
e 221 50 33.0
e 221 292 14.0
e 221 39 18.0
e 221 103 31.0
e 221 183 28.0
e 221 53 48.0
e 221 147 1.0
e 221 284 34.0
e 221 276 40.0
e 221 104 20.0
e 221 7 35.0
e 221 280 41.0
e 221 82 4.0
e 221 146 49.0
e 221 51 32.0
e 221 186 11.0
e 221 163 49.0
e 221 119 5.0
e 221 290 10.0
e 221 277 24.0
e 221 161 20.0
e 221 316 33.0
e 221 137 30.0
e 221 21 22.0
e 221 108 3.0
e 221 306 48.0
e 222 154 1.0
e 223 144 1.0
e 224 305 2.0
e 225 233 1.0
e 226 56 3.0
e 227 266 1.0
e 228 240 1.0
e 229 108 1.0
e 230 240 2.0
e 231 197 1.0
e 232 269 1.0
e 233 312 1.0
e 234 17 1.0
e 235 191 1.0
e 235 85 1.0
e 236 180 1.0
e 237 214 1.0
e 238 198 1.0
e 239 284 1.0
e 240 299 5.0
e 241 167 2.0
e 242 314 1.0
e 243 284 1.0
e 243 282 2.0
e 244 59 13.0
e 244 102 1.0
e 244 114 1.0
e 244 291 3.0
e 244 264 3.0
e 244 92 1.0
e 244 107 5.0
e 245 291 1.0
e 246 148 1.0
e 247 1 1.0
e 248 19 40.0
e 248 230 40.0
e 248 88 19.0
e 248 243 5.0
e 248 144 37.0
e 248 259 36.0
e 248 174 29.0
e 248 295 28.0
e 248 208 1.0
e 248 14 33.0
e 248 61 29.0
e 248 56 2.0
e 248 315 23.0
e 248 121 42.0
e 248 70 33.0
e 248 170 18.0
e 248 276 11.0
e 248 226 34.0
e 248 115 47.0
e 248 119 25.0
e 248 117 22.0
e 248 309 32.0
e 248 145 30.0
e 248 65 32.0
e 248 298 28.0
e 248 100 44.0
e 248 140 18.0
e 248 281 14.0
e 248 18 3.0
e 248 205 2.0
e 248 84 44.0
e 248 316 5.0
e 248 181 38.0
e 248 250 41.0
e 248 240 36.0
e 248 142 8.0
e 248 239 8.0
e 248 74 38.0
e 248 266 46.0
e 248 122 14.0
e 248 62 24.0
e 248 24 38.0
e 248 191 46.0
e 248 33 4.0
e 248 146 32.0
e 248 202 41.0
e 248 219 34.0
e 248 158 44.0
e 248 147 24.0
e 248 227 1.0
e 248 111 37.0
e 248 110 22.0
e 248 0 7.0
e 248 137 2.0
e 248 272 31.0
e 248 280 7.0
e 248 77 19.0
e 248 261 5.0
e 248 15 29.0
e 248 197 32.0
e 248 48 30.0
e 248 12 30.0
e 248 51 39.0
e 248 214 29.0
e 248 41 30.0
e 248 257 37.0
e 248 241 22.0
e 248 71 15.0
e 248 141 2.0
e 248 255 5.0
e 248 86 38.0
e 248 282 30.0
e 248 290 15.0
e 248 260 18.0
e 248 209 31.0
e 248 177 35.0
e 248 8 23.0
e 248 85 44.0
e 249 81 1.0
e 250 200 2.0
e 251 161 1.0
e 252 4 2.0
e 252 11 3.0
e 252 304 5.0
e 253 219 2.0
e 254 149 1.0
e 255 263 1.0
e 256 95 31.0
e 256 238 12.0
e 256 310 18.0
e 256 66 2.0
e 256 29 40.0
e 256 117 13.0
e 256 204 27.0
e 256 11 7.0
e 256 316 7.0
e 256 118 13.0
e 256 174 14.0
e 256 157 13.0
e 256 260 11.0
e 256 279 47.0
e 256 290 13.0
e 256 191 7.0
e 256 277 19.0
e 256 285 48.0
e 256 205 31.0
e 256 14 5.0
e 256 15 36.0
e 256 163 10.0
e 256 249 23.0
e 256 142 47.0
e 256 130 34.0
e 256 62 23.0
e 256 314 12.0
e 256 307 21.0
e 256 190 43.0
e 256 185 33.0
e 256 23 17.0
e 256 54 9.0
e 256 70 40.0
e 256 50 23.0
e 256 90 33.0
e 256 311 35.0
e 256 16 2.0
e 256 203 8.0
e 256 134 29.0
e 256 74 18.0
e 256 2 39.0
e 256 17 17.0
e 256 139 28.0
e 256 250 15.0
e 256 8 5.0
e 256 136 23.0
e 256 222 4.0
e 256 56 38.0
e 256 183 33.0
e 256 211 6.0
e 256 41 3.0
e 256 143 15.0
e 256 214 8.0
e 256 186 1.0
e 256 300 21.0
e 256 93 41.0
e 256 192 24.0
e 256 135 24.0
e 256 128 3.0
e 256 187 25.0
e 256 103 42.0
e 256 158 34.0
e 256 140 3.0
e 256 43 25.0
e 256 251 43.0
e 256 7 16.0
e 256 102 5.0
e 256 160 39.0
e 256 215 30.0
e 256 209 30.0
e 256 224 46.0
e 256 303 42.0
e 257 43 1.0
e 258 274 1.0
e 259 7 1.0
e 261 143 1.0
e 262 229 1.0
e 263 204 1.0
e 264 298 1.0
e 265 159 2.0
e 266 303 1.0
e 267 18 1.0
e 268 72 1.0
e 269 175 1.0
e 270 279 1.0
e 271 232 1.0
e 272 67 2.0
e 273 150 1.0
e 274 215 1.0
e 275 132 1.0
e 276 152 2.0
e 277 76 1.0
e 278 65 1.0
e 279 56 1.0
e 280 103 1.0
e 281 34 2.0
e 282 251 1.0
e 283 186 2.0
e 284 78 1.0
e 285 187 1.0
e 286 99 2.0
e 286 155 1.0
e 286 198 1.0
e 286 77 1.0
e 287 84 11.0
e 287 169 5.0
e 287 190 10.0
e 287 1 5.0
e 287 47 9.0
e 287 196 8.0
e 287 183 9.0
e 287 315 7.0
e 287 90 11.0
e 287 280 8.0
e 287 31 4.0
e 287 108 11.0
e 287 299 19.0
e 287 29 1.0
e 287 263 10.0
e 288 151 1.0
e 289 196 1.0
e 290 127 1.0
e 291 97 1.0
e 292 289 1.0
e 293 242 1.0
e 294 198 2.0
e 295 302 1.0
e 296 183 1.0
e 297 99 3.0
e 298 148 1.0
e 299 84 48.0
e 299 34 38.0
e 299 3 5.0
e 299 26 3.0
e 299 288 49.0
e 299 59 21.0
e 299 194 10.0
e 299 113 2.0
e 299 306 42.0
e 299 261 11.0
e 299 207 2.0
e 299 314 5.0
e 299 56 30.0
e 299 52 11.0
e 299 200 17.0
e 299 232 6.0
e 299 22 27.0
e 299 196 33.0
e 299 45 21.0
e 299 205 13.0
e 299 181 3.0
e 299 40 12.0
e 299 127 23.0
e 299 315 25.0
e 299 48 3.0
e 299 151 11.0
e 299 154 4.0
e 299 91 3.0
e 299 165 41.0
e 299 92 42.0
e 299 295 13.0
e 299 309 26.0
e 299 263 21.0
e 299 138 37.0
e 299 23 30.0
e 299 43 46.0
e 299 146 42.0
e 299 276 49.0
e 299 24 26.0
e 299 223 23.0
e 299 49 19.0
e 299 254 48.0
e 299 282 21.0
e 299 195 37.0
e 299 149 24.0
e 299 85 38.0
e 299 54 49.0
e 299 10 24.0
e 299 289 33.0
e 299 66 18.0
e 299 311 30.0
e 299 246 19.0
e 299 35 9.0
e 299 123 43.0
e 299 14 25.0
e 299 202 4.0
e 299 46 45.0
e 299 4 40.0
e 299 271 42.0
e 299 209 14.0
e 299 293 2.0
e 299 57 42.0
e 299 302 5.0
e 299 47 11.0
e 299 237 22.0
e 299 119 37.0
e 299 226 22.0
e 299 251 5.0
e 299 58 8.0
e 299 219 3.0
e 299 139 35.0
e 299 305 30.0
e 299 36 8.0
e 300 86 1.0
e 301 16 1.0
e 302 168 1.0
e 303 185 1.0
e 304 291 4.0
e 304 149 2.0
e 304 20 8.0
e 304 263 7.0
e 304 80 9.0
e 304 281 5.0
e 304 223 1.0
e 304 251 4.0
e 304 139 11.0
e 304 298 12.0
e 304 239 8.0
e 304 222 12.0
e 304 4 8.0
e 305 24 2.0
e 306 214 2.0
e 307 283 1.0
e 308 298 1.0
e 309 310 1.0
e 310 290 1.0
e 311 308 1.0
e 312 215 1.0
e 313 4 1.0
e 314 275 1.0
e 315 232 1.0
e 316 214 1.0
e 317 273 1.0
e 318 228 2.0
e 319 148 1.0
